(set-option :produce-models true)
(set-logic QF_UF)
(declare-fun p74() Bool)
(declare-fun p48() Bool)
(declare-fun p12() Bool)
(declare-fun p51() Bool)
(declare-fun p6() Bool)
(declare-fun p32() Bool)
(declare-fun p50() Bool)
(declare-fun p53() Bool)
(declare-fun p9() Bool)
(declare-fun p0() Bool)
(declare-fun p70() Bool)
(declare-fun p62() Bool)
(declare-fun p78() Bool)
(declare-fun p75() Bool)
(declare-fun p20() Bool)
(declare-fun p37() Bool)
(declare-fun p22() Bool)
(declare-fun p24() Bool)
(declare-fun p25() Bool)
(declare-fun p23() Bool)
(declare-fun p77() Bool)
(declare-fun p44() Bool)
(declare-fun p60() Bool)
(declare-fun p2() Bool)
(declare-fun p61() Bool)
(declare-fun p16() Bool)
(declare-fun p76() Bool)
(declare-fun p28() Bool)
(declare-fun p67() Bool)
(declare-fun p71() Bool)
(declare-fun p55() Bool)
(declare-fun p8() Bool)
(declare-fun p11() Bool)
(declare-fun p27() Bool)
(declare-fun p64() Bool)
(declare-fun p68() Bool)
(declare-fun p29() Bool)
(declare-fun p4() Bool)
(declare-fun p18() Bool)
(declare-fun p13() Bool)
(declare-fun p56() Bool)
(declare-fun p72() Bool)
(declare-fun p65() Bool)
(declare-fun p59() Bool)
(declare-fun p73() Bool)
(declare-fun p26() Bool)
(declare-fun p19() Bool)
(declare-fun p31() Bool)
(declare-fun p17() Bool)
(declare-fun p42() Bool)
(declare-fun p40() Bool)
(declare-fun p63() Bool)
(declare-fun p3() Bool)
(declare-fun p10() Bool)
(declare-fun p36() Bool)
(declare-fun p57() Bool)
(declare-fun p5() Bool)
(declare-fun p46() Bool)
(declare-fun p58() Bool)
(declare-fun p30() Bool)
(declare-fun p79() Bool)
(declare-fun p41() Bool)
(declare-fun p21() Bool)
(declare-fun p35() Bool)
(declare-fun p45() Bool)
(declare-fun p7() Bool)
(declare-fun p33() Bool)
(declare-fun p38() Bool)
(declare-fun p43() Bool)
(declare-fun p47() Bool)
(declare-fun p49() Bool)
(declare-fun p1() Bool)
(declare-fun p39() Bool)
(declare-fun p14() Bool)
(declare-fun p54() Bool)
(declare-fun p15() Bool)
(declare-fun p52() Bool)
(declare-fun p34() Bool)
(declare-fun p69() Bool)
(declare-fun p66() Bool)
(assert
(and (or p74 (not p74) (not p48)) (or (not p12) (not p51) (not p6)) (or p32 (not p50) (not p53)) (or (not p74) p9 (not p32)) (or (not p0) (not p70) p62) (or p78 p75 p20) (or p37 (not p22) p24) (or p25 p37 p32) (or (not p23) (not p77) (not p44)) (or (not p60) p2 (not p2)) (or p22 (not p61) (not p16)) (or (not p0) p62 p62) (or p76 p28 (not p0)) (or p67 p71 (not p55)) (or p8 (not p11) p32) (or p44 p8 (not p27)) (or p64 p68 (not p55)) (or p6 p2 p29) (or p4 p18 p50) (or p13 (not p32) p56) (or p72 (not p2) (not p65)) (or p16 p68 p0) (or (not p59) (not p60) (not p73)) (or (not p62) (not p26) p8) (or p70 (not p19) p64) (or p31 p65 p23) (or (not p17) p29 p42) (or (not p40) (not p63) (not p40)) (or p62 p76 (not p72)) (or p22 (not p3) (not p10)) (or (not p9) p62 p32) (or p75 p73 (not p67)) (or (not p12) p29 p42) (or p70 (not p36) (not p57)) (or (not p71) (not p13) (not p55)) (or (not p64) (not p5) p46) (or p58 (not p30) (not p50)) (or (not p65) p79 (not p30)) (or p74 p26 p41) (or p21 (not p12) (not p5)) (or (not p24) p42 p72) (or p35 p75 (not p40)) (or p0 (not p68) (not p77)) (or (not p45) (not p71) p7) (or p11 (not p33) p76) (or (not p7) (not p29) p28) (or (not p60) (not p73) (not p38)) (or p43 (not p70) p77) (or (not p47) p2 (not p49)) (or (not p10) p1 p16) (or (not p11) (not p3) p64) (or p67 p68 (not p42)) (or (not p64) p45 (not p3)) (or p6 (not p45) (not p30)) (or (not p62) p7 p13) (or (not p70) (not p65) (not p39)) (or (not p43) (not p14) (not p13)) (or (not p54) p42 (not p26)) (or p23 p33 p22) (or (not p32) p4 (not p70)) (or (not p43) p78 (not p42)) (or (not p74) p40 p41) (or (not p78) (not p18) (not p37)) (or (not p55) (not p36) p9) (or (not p71) p76 p68) (or (not p15) (not p20) p71) (or (not p38) p3 (not p39)) (or (not p58) p59 p38) (or p16 p49 (not p18)) (or p38 p1 (not p44)) (or (not p32) p27 (not p39)) (or p42 p63 (not p1)) (or p47 (not p58) p4) (or (not p54) p40 p52) (or (not p74) p51 p62) (or p18 (not p5) p62) (or p37 p55 (not p2)) (or p54 p36 p0) (or (not p41) p51 p64) (or (not p71) p26 p73) (or p20 p57 p74) (or p68 (not p71) (not p68)) (or p57 (not p12) p8) (or (not p68) p40 (not p28)) (or (not p34) p64 (not p64)) (or (not p20) p10 (not p55)) (or p62 (not p77) (not p28)) (or (not p28) p26 (not p4)) (or p68 p42 p7) (or (not p47) (not p61) (not p41)) (or (not p43) p59 p51) (or (not p36) (not p69) p40) (or (not p16) p79 (not p4)) (or (not p17) (not p20) p46) (or (not p24) (not p33) (not p59)) (or p69 p28 p15) (or p21 (not p66) (not p59)) (or p37 (not p1) (not p60)) (or p74 (not p79) (not p0)) (or p19 (not p40) (not p5)) (or p29 (not p11) p74) (or (not p40) p76 p43) (or (not p18) p6 (not p30)) (or p53 p41 (not p34)) (or p74 (not p72) (not p27)) (or (not p63) p36 (not p1)) (or p47 (not p40) p0) (or p9 (not p36) p78) (or p5 p27 (not p47)) (or (not p31) p8 (not p79)) (or p40 p5 p9) (or p11 p65 (not p12)) (or p42 p53 p30) (or p16 (not p30) (not p37)) (or (not p58) (not p9) p24) (or p10 p40 (not p43)) (or p25 (not p24) p2) (or (not p38) p55 (not p54)) (or (not p73) p59 (not p18)) (or (not p62) (not p33) (not p75)) (or p47 p34 (not p26)) (or p36 (not p37) (not p16)) (or (not p9) (not p57) (not p79)) (or p50 p13 p74) (or (not p58) (not p61) p35) (or p22 (not p3) (not p67)) (or p20 (not p22) p15) (or (not p2) p77 (not p2)) (or (not p67) p12 p58) (or p3 (not p7) (not p52)) (or (not p14) (not p28) p78) (or p9 p22 p22) (or p29 (not p8) (not p54)) (or p4 (not p77) (not p69)) (or (not p60) p38 (not p42)) (or p50 (not p23) (not p2)) (or p68 (not p1) (not p58)) (or p60 (not p75) (not p76)) (or p29 p77 p62) (or (not p64) p48 (not p20)) (or p8 p41 (not p32)) (or (not p44) (not p69) (not p70)) (or (not p71) p60 p79) (or (not p19) (not p39) p35) (or p15 (not p34) (not p24)) (or (not p27) p5 p30) (or (not p58) (not p23) (not p44)) (or p50 p64 p33) (or p2 p64 (not p23)) (or (not p71) p32 (not p23)) (or (not p41) (not p61) p10) (or (not p56) (not p17) (not p56)) (or p39 p18 (not p51)) (or p51 (not p79) (not p42)) (or (not p61) (not p69) p54) (or p4 p24 (not p23)) (or (not p53) (not p34) (not p52)) (or p54 p16 (not p69)) (or (not p45) (not p78) p12) (or p57 p19 (not p15)) (or p14 (not p20) p30) (or (not p69) (not p65) (not p74)) (or (not p0) (not p72) p61) (or (not p70) p3 p22) (or p45 (not p35) p34) (or p54 p33 p8) (or p59 p7 p70) (or p43 p5 p14) (or (not p40) p16 p76) (or (not p56) (not p10) (not p1)) (or p46 p64 (not p68)) (or p65 p21 p43) (or (not p41) p60 p47) (or p74 p7 (not p47)) (or p1 p67 (not p28)) (or (not p60) (not p23) (not p8)) (or p62 (not p77) (not p4)) (or (not p47) p5 (not p60)) (or p4 p16 p78) (or (not p23) (not p44) (not p13)) (or (not p24) (not p38) (not p57)) (or (not p52) (not p17) p38) (or p13 (not p61) (not p2)) (or (not p21) p39 (not p38)) (or p56 p22 p30) (or p23 p22 (not p4)) (or p51 p61 (not p67)) (or (not p7) p35 (not p75)) (or p60 p11 (not p49)) (or (not p29) (not p9) p33) (or (not p47) (not p52) (not p0)) (or p39 (not p9) (not p48)) (or (not p48) (not p24) p50) (or (not p39) (not p27) p75) (or (not p58) p30 p58) (or (not p55) (not p26) (not p16)) (or p73 (not p10) (not p58)) (or (not p41) (not p2) (not p63)) (or (not p58) p23 p16) (or (not p30) p30 p34) (or (not p68) p1 (not p30)) (or (not p79) (not p12) (not p43)) (or (not p47) p43 p78) (or (not p73) (not p31) (not p48)) (or (not p69) p66 (not p26)) (or (not p53) p41 p56) (or p50 p23 p45) (or (not p18) (not p78) (not p72)) (or p19 p49 p15) (or (not p58) p44 (not p27)) (or p37 (not p1) p60) (or p71 p41 p40) (or p24 p4 p70) (or (not p9) p22 p63) (or (not p30) (not p42) (not p36)) (or p65 (not p47) (not p19)) (or p61 (not p59) p54) (or (not p60) p55 p58) (or (not p70) p11 (not p2)) (or (not p39) (not p72) p51) (or p12 (not p4) p56) (or (not p55) p73 (not p66)) (or p70 p37 (not p69)) (or (not p7) p28 p50) (or (not p22) (not p3) (not p3)) (or p21 p34 p2) (or p73 (not p9) (not p48)) (or p57 (not p55) p48) (or (not p44) (not p55) p59) (or (not p58) (not p77) (not p5)) (or p69 (not p63) (not p2)) (or (not p7) p79 (not p74)) (or p3 p64 p75) (or (not p61) p62 p39) (or p75 p76 p57) (or p4 p43 p77) (or (not p7) p5 (not p27)) (or (not p72) (not p9) p60) (or (not p23) (not p20) (not p77)) (or p48 (not p72) p63) (or (not p10) (not p42) (not p5)) (or p39 (not p70) p22) (or p57 p38 (not p33)) (or (not p61) (not p2) p33) (or (not p45) p71 p40) (or p33 (not p26) p31) (or p58 (not p30) (not p13)) (or p57 p68 (not p74)) (or p36 p28 (not p7)) (or (not p31) (not p61) (not p7)) (or (not p67) (not p77) p31) (or p48 (not p69) (not p26)) (or p16 p24 (not p35)) (or p47 (not p43) (not p19)) (or (not p79) (not p12) p72) (or p21 p40 p48) (or p13 p66 p60) (or (not p12) (not p49) (not p12)) (or (not p57) (not p39) p43) (or (not p38) (not p22) (not p3)) (or (not p35) p7 p79) (or p52 p46 (not p40)) (or (not p41) (not p78) (not p9)) (or p1 p35 (not p2)) (or p17 (not p42) p48) (or (not p31) p11 (not p49)) (or p48 (not p46) p64) (or (not p30) (not p67) (not p49)) (or (not p28) (not p18) (not p16)) (or (not p64) (not p33) (not p39)) (or p27 (not p5) (not p26)) (or (not p34) (not p33) (not p8)) (or (not p79) p21 p49) (or (not p66) (not p62) (not p74)) (or (not p60) (not p44) p25) (or p52 p2 (not p65)) (or (not p52) (not p26) p45) (or p25 (not p27) p16) (or p28 p37 (not p9)) (or (not p40) p51 (not p54)) (or p40 p5 p14) (or p42 p68 (not p8)) (or (not p70) p14 (not p38)) (or (not p78) (not p20) p60) (or (not p4) p52 (not p0)) (or p65 (not p44) p66) (or p37 (not p70) p5) (or (not p78) p56 (not p56)) (or p31 (not p0) (not p10)) (or (not p70) p5 (not p5)) (or p70 (not p67) p39) (or (not p27) (not p36) p68) (or p73 p5 p51) (or (not p36) (not p33) p20) (or (not p0) (not p13) (not p48)) (or p40 (not p24) p54) (or p58 (not p10) (not p41)) (or p47 p16 (not p36)) (or (not p24) (not p76) (not p47)) (or p51 (not p69) (not p53)) (or p32 (not p36) p51) (or (not p24) p30 (not p21)) (or p26 (not p54) (not p62)) (or (not p52) p52 p65) (or p14 p77 p48) (or p39 p48 p67) (or (not p58) (not p29) (not p1)) (or p58 (not p23) (not p6)) (or (not p41) p43 (not p48)) (or p76 p35 (not p16)) (or (not p0) p45 (not p19)) (or p43 (not p23) p20) (or (not p5) (not p3) (not p55)) (or p27 (not p25) p41) (or p58 (not p9) (not p68)) (or (not p29) (not p67) (not p22)) (or p38 (not p21) (not p57)) (or (not p11) p41 (not p11)) (or p68 p14 p39) (or p78 (not p25) (not p53)) (or (not p10) p9 p41) (or p1 (not p41) (not p9)) (or (not p59) (not p41) p65) (or (not p4) p43 p16) (or (not p43) p79 p3) (or p6 (not p66) (not p51)) (or (not p72) p75 p37) (or p73 (not p56) (not p66)) (or p25 p76 p49) (or (not p75) (not p8) (not p61)) (or p0 (not p52) (not p2)) (or p63 (not p60) (not p24)) (or p30 (not p25) (not p66)) (or (not p78) (not p77) (not p66)) (or (not p32) (not p68) p22) (or (not p51) (not p13) (not p37)) (or (not p35) p46 p13))
)
(check-sat)
(get-model)
